TCS_Benchmarks/redos_fix/corpus1_output_distinct_3326_3325_1_0.smt2
(set-logic QF_S)
(declare-const x String)
(assert (str.in.re x (re.inter  (re.++ (re.* (re.union (re.range "\u{00}" "\u{09}") (re.range "\u{0b}" "\u{0c}") (re.range "\u{0e}" "\u{84}") (re.range "\u{86}" "\u{ff}")) ) (re.+  (re.union (re.range "\u{41}" "\u{46}") (re.union  (str.to.re "\u{3a}") (re.union (re.range "\u{61}" "\u{66}") (re.range "\u{30}" "\u{39}")))) ))  (re.++ (re.* (re.union (re.range "\u{00}" "\u{09}") (re.range "\u{0b}" "\u{0c}") (re.range "\u{0e}" "\u{84}") (re.range "\u{86}" "\u{ff}")) ) (re.++  (re.++  (re.union  (re.++  (str.to.re "\u{48}") (re.++  (str.to.re "\u{57}") (re.++  (str.to.re "\u{61}") (re.++  (str.to.re "\u{64}") (re.++  (str.to.re "\u{64}")  (str.to.re "\u{72}"))))))  (re.++  (str.to.re "\u{65}") (re.++  (str.to.re "\u{74}") (re.++  (str.to.re "\u{68}") (re.++  (str.to.re "\u{65}")  (str.to.re "\u{72}"))))))  (str.to.re "\u{20}")) (re.+  (re.union (re.range "\u{41}" "\u{46}") (re.union  (str.to.re "\u{3a}") (re.union (re.range "\u{61}" "\u{66}") (re.range "\u{30}" "\u{39}")))) ))) )))
(check-sat)
(get-model)