TCS_Benchmarks/redos_fix/corpus1_output_distinct_3326_3325_1_0.txt
(.*)([A-F:a-f0-9]+)
(.*)((HWaddr|ether) )([A-F:a-f0-9]+)